GLPSOL--GLPK LP/MIP Solver 5.0
Parameter(s) specified in the command line:
 --cpxlp --first inputs/new_tr/order/jump35_reverse_tiers_input.lp -o solutions/new_tr/jump35_reverse_tiers_input.lp
Reading problem data from 'inputs/new_tr/order/jump35_reverse_tiers_input.lp'...
inputs/new_tr/order/jump35_reverse_tiers_input.lp:6030: warning: lower bound of variable 'm_10_10' redefined
inputs/new_tr/order/jump35_reverse_tiers_input.lp:6030: warning: upper bound of variable 'm_10_10' redefined
5746 rows, 2486 columns, 17484 non-zeros
2486 integer variables, 2209 of which are binary
8480 lines were read
GLPK Integer Optimizer 5.0
5746 rows, 2486 columns, 17484 non-zeros
2486 integer variables, 2209 of which are binary
Preprocessing...
285 hidden packing inequaliti(es) were detected
319 hidden covering inequaliti(es) were detected
948 constraint coefficient(s) were reduced
4914 rows, 2001 columns, 14401 non-zeros
2001 integer variables, 1965 of which are binary
Scaling...
 A: min|aij| =  1.000e+00  max|aij| =  1.024e+04  ratio =  1.024e+04
GM: min|aij| =  4.111e-01  max|aij| =  2.432e+00  ratio =  5.916e+00
EQ: min|aij| =  1.690e-01  max|aij| =  1.000e+00  ratio =  5.916e+00
2N: min|aij| =  1.250e-01  max|aij| =  1.562e+00  ratio =  1.250e+01
Constructing initial basis...
Size of triangular part is 4440
Solving LP relaxation...
GLPK Simplex Optimizer 5.0
4914 rows, 2001 columns, 14401 non-zeros
      0: obj =   2.969600000e+04 inf =   7.589e+02 (396)
Perturbing LP to avoid stalling [199]...
   1543: obj =   5.330056448e+04 inf =   2.550e-08 (0) 14
Removing LP perturbation [3520]...
*  3520: obj =   3.751020699e+04 inf =   3.907e-14 (0) 18
OPTIMAL LP SOLUTION FOUND
Integer optimization begins...
Long-step dual simplex will be used
+  3520: mip =     not found yet >=              -inf        (1; 0)
+ 16843: mip =     not found yet >=   3.751100000e+04        (17; 0)
+ 28199: mip =     not found yet >=   3.751100000e+04        (24; 1)
+ 39546: mip =     not found yet >=   3.751200000e+04        (35; 2)
+ 51874: mip =     not found yet >=   3.751200000e+04        (44; 3)
+ 65220: mip =     not found yet >=   3.751300000e+04        (51; 3)
+ 77517: mip =     not found yet >=   3.751300000e+04        (63; 4)
+ 90047: mip =     not found yet >=   3.751400000e+04        (72; 5)
+103955: mip =     not found yet >=   3.783600000e+04        (85; 6)
+115686: mip =     not found yet >=   3.783600000e+04        (88; 7)
+127491: mip =     not found yet >=   3.813200000e+04        (92; 9)
+139252: mip =     not found yet >=   3.813200000e+04        (100; 9)
Time used: 61.0 secs.  Memory used: 7.1 Mb.
+151548: mip =     not found yet >=   3.813200000e+04        (108; 10)
+164425: mip =     not found yet >=   3.813200000e+04        (112; 11)
+177644: mip =     not found yet >=   3.820200000e+04        (120; 12)
+193035: mip =     not found yet >=   3.820500000e+04        (125; 13)
+205744: mip =     not found yet >=   3.820500000e+04        (138; 13)
+219067: mip =     not found yet >=   3.820800000e+04        (142; 14)
+234094: mip =     not found yet >=   3.820800000e+04        (160; 15)
+248520: mip =     not found yet >=   3.821500000e+04        (165; 16)
+260366: mip =     not found yet >=   3.821500000e+04        (169; 17)
+272996: mip =     not found yet >=   3.826100000e+04        (179; 18)
+285827: mip =     not found yet >=   3.832900000e+04        (188; 19)
Time used: 121.9 secs.  Memory used: 7.6 Mb.
+298708: mip =     not found yet >=   3.832900000e+04        (191; 21)
+310923: mip =     not found yet >=   3.832900000e+04        (195; 21)
+323150: mip =     not found yet >=   3.832900000e+04        (204; 23)
+336728: mip =     not found yet >=   3.835100000e+04        (217; 24)
+348968: mip =     not found yet >=   3.835100000e+04        (225; 26)
+361799: mip =     not found yet >=   3.854200000e+04        (227; 30)
+376742: mip =     not found yet >=   3.854200000e+04        (231; 30)
+389766: mip =     not found yet >=   3.854200000e+04        (238; 31)
+402105: mip =     not found yet >=   3.856700000e+04        (247; 32)
+416138: mip =     not found yet >=   3.856700000e+04        (253; 33)
Time used: 182.0 secs.  Memory used: 8.1 Mb.
+430418: mip =     not found yet >=   3.856700000e+04        (263; 34)
+442320: mip =     not found yet >=   3.856700000e+04        (270; 34)
+456690: mip =     not found yet >=   3.856700000e+04        (289; 35)
+469065: mip =     not found yet >=   3.856700000e+04        (295; 37)
+483349: mip =     not found yet >=   3.856700000e+04        (304; 38)
+495569: mip =     not found yet >=   3.857500000e+04        (317; 39)
+506745: mip =     not found yet >=   3.857500000e+04        (322; 39)
+522901: mip =     not found yet >=   3.857500000e+04        (327; 39)
+537413: mip =     not found yet >=   3.860100000e+04        (347; 41)
+549101: mip =     not found yet >=   3.861200000e+04        (352; 42)
+562150: mip =     not found yet >=   3.869500000e+04        (362; 44)
Time used: 242.2 secs.  Memory used: 8.7 Mb.
+575700: mip =     not found yet >=   3.869500000e+04        (366; 45)
+588388: mip =     not found yet >=   3.869500000e+04        (373; 46)
+600716: mip =     not found yet >=   3.869500000e+04        (383; 46)
+612604: mip =     not found yet >=   3.869500000e+04        (393; 47)
+625484: mip =     not found yet >=   3.869500000e+04        (403; 49)
+637754: mip =     not found yet >=   3.869500000e+04        (413; 49)
+649236: mip =     not found yet >=   3.869500000e+04        (421; 50)
+661329: mip =     not found yet >=   3.869800000e+04        (426; 51)
+674993: mip =     not found yet >=   3.869800000e+04        (433; 51)
+687836: mip =     not found yet >=   3.869800000e+04        (447; 53)
+703275: mip =     not found yet >=   3.870600000e+04        (457; 55)
Time used: 302.5 secs.  Memory used: 9.4 Mb.
+715370: mip =     not found yet >=   3.870900000e+04        (460; 59)
+727241: mip =     not found yet >=   3.870900000e+04        (487; 59)
+739850: mip =     not found yet >=   3.870900000e+04        (496; 60)
+752144: mip =     not found yet >=   3.871000000e+04        (501; 61)
+764461: mip =     not found yet >=   3.871000000e+04        (507; 61)
+780840: mip =     not found yet >=   3.872400000e+04        (511; 62)
+794409: mip =     not found yet >=   3.872400000e+04        (518; 62)
+806768: mip =     not found yet >=   3.872500000e+04        (527; 63)
+819187: mip =     not found yet >=   3.876700000e+04        (535; 65)
+833726: mip =     not found yet >=   3.882400000e+04        (542; 67)
+848257: mip =     not found yet >=   3.891800000e+04        (547; 70)
Time used: 363.8 secs.  Memory used: 10.0 Mb.
+859796: mip =     not found yet >=   3.891800000e+04        (552; 70)
+872560: mip =     not found yet >=   3.891800000e+04        (569; 71)
+884543: mip =     not found yet >=   3.900300000e+04        (571; 73)
+896138: mip =     not found yet >=   3.900300000e+04        (574; 74)
+909294: mip =     not found yet >=   3.900300000e+04        (580; 75)
+921633: mip =     not found yet >=   3.900300000e+04        (586; 75)
+934995: mip =     not found yet >=   3.907500000e+04        (590; 76)
+947524: mip =     not found yet >=   3.907500000e+04        (597; 76)
+959096: mip =     not found yet >=   3.907500000e+04        (600; 78)
+971149: mip =     not found yet >=   3.907500000e+04        (603; 80)
+984565: mip =     not found yet >=   3.907500000e+04        (608; 82)
Time used: 425.0 secs.  Memory used: 10.5 Mb.
+997492: mip =     not found yet >=   3.909900000e+04        (613; 84)
+1013627: mip =     not found yet >=   3.909900000e+04        (619; 85)
+1025264: mip =     not found yet >=   3.909900000e+04        (623; 85)
+1040204: mip =     not found yet >=   3.909900000e+04        (627; 86)
+1052361: mip =     not found yet >=   3.909900000e+04        (629; 87)
+1065404: mip =     not found yet >=   3.909900000e+04        (633; 88)
+1076033: mip =     not found yet >=   3.909900000e+04        (638; 89)
+1089777: mip =     not found yet >=   3.909900000e+04        (649; 90)
+1100934: mip =     not found yet >=   3.909900000e+04        (653; 90)
+1114675: mip =     not found yet >=   3.909900000e+04        (658; 91)
+1126913: mip =     not found yet >=   3.909900000e+04        (665; 91)
Time used: 485.1 secs.  Memory used: 11.0 Mb.
+1140191: mip =     not found yet >=   3.909900000e+04        (669; 92)
+1151831: mip =     not found yet >=   3.909900000e+04        (674; 92)
+1167089: mip =     not found yet >=   3.909900000e+04        (676; 93)
+1178789: mip =     not found yet >=   3.909900000e+04        (683; 93)
+1195704: mip =     not found yet >=   3.909900000e+04        (691; 95)
+1207993: mip =     not found yet >=   3.909900000e+04        (702; 96)
+1220180: mip =     not found yet >=   3.909900000e+04        (705; 97)
+1232540: mip =     not found yet >=   3.909900000e+04        (707; 98)
+1250237: mip =     not found yet >=   3.909900000e+04        (714; 99)
+1261444: mip =     not found yet >=   3.909900000e+04        (718; 99)
Time used: 545.7 secs.  Memory used: 11.4 Mb.
+1275923: mip =     not found yet >=   3.909900000e+04        (722; 100)
+1288734: mip =     not found yet >=   3.909900000e+04        (731; 101)
+1304978: mip =     not found yet >=   3.909900000e+04        (735; 102)
+1318509: mip =     not found yet >=   3.909900000e+04        (751; 104)
+1332451: mip =     not found yet >=   3.909900000e+04        (755; 105)
+1345416: mip =     not found yet >=   3.909900000e+04        (761; 105)
+1358716: mip =     not found yet >=   3.909900000e+04        (777; 107)
+1371467: mip =     not found yet >=   3.909900000e+04        (788; 108)
+1385417: mip =     not found yet >=   3.909900000e+04        (792; 109)
+1397196: mip =     not found yet >=   3.909900000e+04        (796; 110)
Time used: 606.4 secs.  Memory used: 12.0 Mb.
+1412023: mip =     not found yet >=   3.909900000e+04        (804; 111)
+1427723: mip =     not found yet >=   3.909900000e+04        (811; 112)
+1439947: mip =     not found yet >=   3.909900000e+04        (825; 114)
+1453196: mip =     not found yet >=   3.909900000e+04        (829; 115)
+1467600: mip =     not found yet >=   3.909900000e+04        (833; 116)
+1481225: mip =     not found yet >=   3.910300000e+04        (839; 117)
+1495628: mip =     not found yet >=   3.910300000e+04        (843; 117)
+1507258: mip =     not found yet >=   3.911800000e+04        (850; 119)
+1521110: mip =     not found yet >=   3.911900000e+04        (856; 120)
+1536908: mip =     not found yet >=   3.912100000e+04        (860; 121)
Time used: 666.8 secs.  Memory used: 12.5 Mb.
+1548479: mip =     not found yet >=   3.912100000e+04        (864; 121)
+1559703: mip =     not found yet >=   3.912100000e+04        (869; 122)
+1571335: mip =     not found yet >=   3.913500000e+04        (871; 123)
+1587332: mip =     not found yet >=   3.918100000e+04        (873; 126)
+1602904: mip =     not found yet >=   3.918100000e+04        (893; 128)
+1616108: mip =     not found yet >=   3.918100000e+04        (896; 128)
+1628680: mip =     not found yet >=   3.918100000e+04        (901; 130)
+1643872: mip =     not found yet >=   3.930000000e+04        (909; 132)
+1657808: mip =     not found yet >=   3.930000000e+04        (916; 133)
+1671171: mip =     not found yet >=   3.930000000e+04        (922; 133)
Time used: 727.4 secs.  Memory used: 12.9 Mb.
+1682709: mip =     not found yet >=   3.930000000e+04        (924; 134)
+1695211: mip =     not found yet >=   3.930000000e+04        (935; 134)
+1707160: mip =     not found yet >=   3.931400000e+04        (942; 135)
+1720266: mip =     not found yet >=   3.931400000e+04        (952; 136)
+1731467: mip =     not found yet >=   3.931400000e+04        (962; 137)
+1744592: mip =     not found yet >=   3.931400000e+04        (970; 137)
+1757046: mip =     not found yet >=   3.931400000e+04        (973; 138)
+1769830: mip =     not found yet >=   3.931400000e+04        (982; 139)
+1783827: mip =     not found yet >=   3.931400000e+04        (994; 140)
+1796248: mip =     not found yet >=   3.931400000e+04        (1001; 140)
+1809868: mip =     not found yet >=   3.931400000e+04        (1005; 140)
Time used: 788.4 secs.  Memory used: 13.4 Mb.
+1822609: mip =     not found yet >=   3.931400000e+04        (1010; 141)
+1835926: mip =     not found yet >=   3.931400000e+04        (1034; 142)
+1850008: mip =     not found yet >=   3.931400000e+04        (1043; 142)
+1861844: mip =     not found yet >=   3.931400000e+04        (1046; 143)
Warning: basis matrix is ill-conditioned (cond = 4.51e+12)
Warning: basis matrix is ill-conditioned (cond = 4.57e+12)
+1875133: mip =     not found yet >=   3.931400000e+04        (1054; 143)
+1889820: mip =     not found yet >=   3.931400000e+04        (1056; 144)
+1901214: mip =     not found yet >=   3.931400000e+04        (1063; 144)
+1912734: mip =     not found yet >=   3.931400000e+04        (1067; 144)
+1926137: mip =     not found yet >=   3.934000000e+04        (1071; 145)
+1941852: mip =     not found yet >=   3.934000000e+04        (1078; 145)
+1955085: mip =     not found yet >=   3.934000000e+04        (1080; 150)
Time used: 848.5 secs.  Memory used: 13.9 Mb.
+1966954: mip =     not found yet >=   3.934000000e+04        (1084; 152)
+1980128: mip =     not found yet >=   3.934000000e+04        (1091; 153)
+1993158: mip =     not found yet >=   3.934000000e+04        (1097; 154)
+2005211: mip =     not found yet >=   3.934000000e+04        (1102; 156)
+2017353: mip =     not found yet >=   3.934000000e+04        (1110; 157)
+2029362: mip =     not found yet >=   3.934000000e+04        (1117; 158)
+2047403: mip =     not found yet >=   3.934000000e+04        (1121; 160)
+2060352: mip =     not found yet >=   3.934000000e+04        (1126; 161)
+2072645: mip =     not found yet >=   3.934000000e+04        (1136; 162)
+2086798: mip =     not found yet >=   3.934000000e+04        (1143; 163)
Time used: 908.7 secs.  Memory used: 14.5 Mb.
+2102604: mip =     not found yet >=   3.934000000e+04        (1148; 165)
+2116755: mip =     not found yet >=   3.934000000e+04        (1154; 166)
+2129600: mip =     not found yet >=   3.934000000e+04        (1160; 167)
+2145190: mip =     not found yet >=   3.934300000e+04        (1165; 172)
+2159661: mip =     not found yet >=   3.934300000e+04        (1169; 174)
+2173769: mip =     not found yet >=   3.934300000e+04        (1171; 175)
+2185775: mip =     not found yet >=   3.934300000e+04        (1174; 175)
+2198356: mip =     not found yet >=   3.935900000e+04        (1182; 177)
+2210226: mip =     not found yet >=   3.935900000e+04        (1189; 178)
+2225408: mip =     not found yet >=   3.935900000e+04        (1192; 179)
+2237744: mip =     not found yet >=   3.935900000e+04        (1198; 179)
Time used: 969.9 secs.  Memory used: 15.0 Mb.
+2249388: mip =     not found yet >=   3.935900000e+04        (1205; 180)
+2261961: mip =     not found yet >=   3.935900000e+04        (1208; 180)
+2273145: mip =     not found yet >=   3.935900000e+04        (1215; 181)
+2284838: mip =     not found yet >=   3.935900000e+04        (1218; 181)
+2299367: mip =     not found yet >=   3.936500000e+04        (1222; 182)
+2312980: mip =     not found yet >=   3.936600000e+04        (1229; 183)
+2331198: mip =     not found yet >=   3.936600000e+04        (1235; 183)
+2343435: mip =     not found yet >=   3.936600000e+04        (1239; 184)
+2358992: mip =     not found yet >=   3.936600000e+04        (1241; 185)
+2372823: mip =     not found yet >=   3.936600000e+04        (1247; 185)
Time used: 1031.0 secs.  Memory used: 15.4 Mb.
+2386523: mip =     not found yet >=   3.936600000e+04        (1249; 186)
+2398628: mip =     not found yet >=   3.936600000e+04        (1255; 187)
+2410679: mip =     not found yet >=   3.936600000e+04        (1262; 187)
+2424050: mip =     not found yet >=   3.936600000e+04        (1263; 188)
+2436949: mip =     not found yet >=   3.936700000e+04        (1268; 189)
+2449544: mip =     not found yet >=   3.936700000e+04        (1276; 189)
+2462249: mip =     not found yet >=   3.938300000e+04        (1277; 191)
+2474969: mip =     not found yet >=   3.938300000e+04        (1280; 191)
+2486913: mip =     not found yet >=   3.938300000e+04        (1288; 193)
+2499783: mip =     not found yet >=   3.938300000e+04        (1299; 194)
+2512548: mip =     not found yet >=   3.938300000e+04        (1306; 195)
Time used: 1092.2 secs.  Memory used: 15.9 Mb.
+2526453: mip =     not found yet >=   3.939500000e+04        (1309; 197)
+2539923: mip =     not found yet >=   3.940700000e+04        (1311; 199)
+2551727: mip =     not found yet >=   3.940700000e+04        (1316; 199)
+2565752: mip =     not found yet >=   3.940700000e+04        (1317; 200)
+2577116: mip =     not found yet >=   3.940700000e+04        (1322; 200)
+2590428: mip =     not found yet >=   3.940700000e+04        (1323; 201)
+2601507: mip =     not found yet >=   3.940700000e+04        (1327; 201)
+2616948: mip =     not found yet >=   3.942300000e+04        (1329; 202)
+2628500: mip =     not found yet >=   3.942300000e+04        (1334; 202)
+2641343: mip =     not found yet >=   3.942300000e+04        (1336; 203)
+2656805: mip =     not found yet >=   3.942300000e+04        (1343; 204)
Time used: 1152.6 secs.  Memory used: 16.2 Mb.
+2669952: mip =     not found yet >=   3.942300000e+04        (1349; 204)
+2681655: mip =     not found yet >=   3.942300000e+04        (1355; 205)
+2693366: mip =     not found yet >=   3.942800000e+04        (1360; 206)
+2711899: mip =     not found yet >=   3.942800000e+04        (1363; 207)
+2724125: mip =     not found yet >=   3.942800000e+04        (1368; 207)
+2736462: mip =     not found yet >=   3.946500000e+04        (1370; 208)
+2749442: mip =     not found yet >=   3.946500000e+04        (1372; 209)
+2762769: mip =     not found yet >=   3.946500000e+04        (1387; 210)
+2777605: mip =     not found yet >=   3.946500000e+04        (1391; 211)
+2791478: mip =     not found yet >=   3.946900000e+04        (1394; 212)
Time used: 1213.0 secs.  Memory used: 16.7 Mb.
+2804985: mip =     not found yet >=   3.948600000e+04        (1401; 213)
+2821319: mip =     not found yet >=   3.948600000e+04        (1407; 213)
+2833919: mip =     not found yet >=   3.949100000e+04        (1410; 214)
+2845641: mip =     not found yet >=   3.949100000e+04        (1413; 214)
+2858290: mip =     not found yet >=   3.949500000e+04        (1415; 217)
+2873113: mip =     not found yet >=   3.950300000e+04        (1419; 220)
+2886156: mip =     not found yet >=   3.951200000e+04        (1428; 221)
+2899126: mip =     not found yet >=   3.954600000e+04        (1427; 227)
+2912296: mip =     not found yet >=   3.954600000e+04        (1430; 228)
+2925113: mip =     not found yet >=   3.954600000e+04        (1434; 229)
Time used: 1273.2 secs.  Memory used: 17.1 Mb.
+2936725: mip =     not found yet >=   3.954600000e+04        (1438; 230)
+2948513: mip =     not found yet >=   3.955100000e+04        (1441; 231)
+2959817: mip =     not found yet >=   3.955500000e+04        (1447; 232)
+2970915: mip =     not found yet >=   3.957700000e+04        (1452; 234)
+2983942: mip =     not found yet >=   3.958300000e+04        (1456; 236)
+2996414: mip =     not found yet >=   3.961400000e+04        (1461; 238)
+3010247: mip =     not found yet >=   3.963500000e+04        (1467; 240)
+3025093: mip =     not found yet >=   3.965000000e+04        (1472; 242)
+3039707: mip =     not found yet >=   3.965000000e+04        (1476; 243)
+3051730: mip =     not found yet >=   3.965000000e+04        (1485; 244)
+3064367: mip =     not found yet >=   3.965000000e+04        (1487; 245)
Time used: 1334.4 secs.  Memory used: 17.7 Mb.
+3079736: mip =     not found yet >=   3.965000000e+04        (1491; 246)
+3097186: mip =     not found yet >=   3.965000000e+04        (1496; 247)
+3109863: mip =     not found yet >=   3.965000000e+04        (1507; 248)
+3124401: mip =     not found yet >=   3.965000000e+04        (1511; 249)
+3140762: mip =     not found yet >=   3.965000000e+04        (1516; 250)
+3154438: mip =     not found yet >=   3.965300000e+04        (1520; 251)
+3165398: mip =     not found yet >=   3.967600000e+04        (1521; 255)
+3178115: mip =     not found yet >=   3.969400000e+04        (1523; 257)
+3189309: mip =     not found yet >=   3.969400000e+04        (1527; 257)
+3202452: mip =     not found yet >=   3.972100000e+04        (1531; 259)
Time used: 1395.0 secs.  Memory used: 18.2 Mb.
+3214130: mip =     not found yet >=   3.972100000e+04        (1536; 260)
+3227254: mip =     not found yet >=   3.972100000e+04        (1541; 261)
+3239406: mip =     not found yet >=   3.972100000e+04        (1553; 262)
+3254333: mip =     not found yet >=   3.972100000e+04        (1561; 263)
+3266167: mip =     not found yet >=   3.972100000e+04        (1566; 263)
+3278126: mip =     not found yet >=   3.972100000e+04        (1570; 263)
+3293066: mip =     not found yet >=   3.972100000e+04        (1579; 265)
+3305552: mip =     not found yet >=   3.972400000e+04        (1589; 266)
+3320663: mip =     not found yet >=   3.973200000e+04        (1596; 267)
+3335223: mip =     not found yet >=   3.976700000e+04        (1602; 269)
Time used: 1455.8 secs.  Memory used: 18.6 Mb.
+3356460: mip =     not found yet >=   3.977200000e+04        (1608; 271)
+3368974: mip =     not found yet >=   3.981100000e+04        (1603; 284)
+3382353: mip =     not found yet >=   3.981200000e+04        (1606; 286)
+3394137: mip =     not found yet >=   3.981200000e+04        (1610; 287)
+3407900: mip =     not found yet >=   3.981200000e+04        (1614; 290)
+3419437: mip =     not found yet >=   3.981200000e+04        (1619; 291)
+3431264: mip =     not found yet >=   3.981200000e+04        (1624; 292)
+3442834: mip =     not found yet >=   3.981200000e+04        (1626; 294)
+3456377: mip =     not found yet >=   3.981200000e+04        (1629; 296)
+3470184: mip =     not found yet >=   3.981200000e+04        (1635; 297)
Time used: 1516.7 secs.  Memory used: 19.1 Mb.
+3483175: mip =     not found yet >=   3.981200000e+04        (1638; 300)
+3497578: mip =     not found yet >=   3.981200000e+04        (1642; 301)
+3509529: mip =     not found yet >=   3.981200000e+04        (1648; 302)
+3521779: mip =     not found yet >=   3.981200000e+04        (1651; 305)
+3533389: mip =     not found yet >=   3.991000000e+04        (1645; 316)
+3545776: mip =     not found yet >=   3.992500000e+04        (1654; 317)
+3557924: mip =     not found yet >=   3.992500000e+04        (1657; 318)
+3570838: mip =     not found yet >=   3.992500000e+04        (1661; 319)
+3582693: mip =     not found yet >=   3.992500000e+04        (1669; 320)
+3595582: mip =     not found yet >=   3.992500000e+04        (1671; 321)
+3610394: mip =     not found yet >=   3.992500000e+04        (1673; 322)
Time used: 1577.4 secs.  Memory used: 19.6 Mb.
+3626602: mip =     not found yet >=   3.992500000e+04        (1679; 323)
+3643086: mip =     not found yet >=   3.992500000e+04        (1682; 324)
+3654193: mip =     not found yet >=   3.992500000e+04        (1685; 324)
+3667555: mip =     not found yet >=   3.992500000e+04        (1690; 325)
+3680610: mip =     not found yet >=   3.992500000e+04        (1693; 326)
+3692320: mip =     not found yet >=   3.992500000e+04        (1711; 327)
+3709777: mip =     not found yet >=   3.992500000e+04        (1733; 328)
+3723990: mip =     not found yet >=   3.992500000e+04        (1737; 329)
+3738707: mip =     not found yet >=   3.994800000e+04        (1739; 330)
Time used: 1637.8 secs.  Memory used: 20.1 Mb.
+3750876: mip =     not found yet >=   3.995300000e+04        (1766; 332)
+3763818: mip =     not found yet >=   3.995600000e+04        (1770; 335)
+3775810: mip =     not found yet >=   3.998100000e+04        (1781; 339)
+3788176: mip =     not found yet >=   3.998100000e+04        (1787; 339)
+3800039: mip =     not found yet >=   3.999100000e+04        (1801; 342)
+3815287: mip =     not found yet >=   3.999100000e+04        (1806; 344)
+3826990: mip =     not found yet >=   3.999100000e+04        (1812; 345)
+3839040: mip =     not found yet >=   3.999100000e+04        (1818; 346)
+3851484: mip =     not found yet >=   3.999100000e+04        (1820; 348)
+3867286: mip =     not found yet >=   3.999100000e+04        (1823; 352)
+3879550: mip =     not found yet >=   3.999100000e+04        (1828; 353)
Time used: 1698.1 secs.  Memory used: 20.6 Mb.
+3893541: mip =     not found yet >=   3.999100000e+04        (1830; 358)
+3905671: mip =     not found yet >=   3.999100000e+04        (1834; 360)
+3918427: mip =     not found yet >=   3.999100000e+04        (1839; 361)
+3930326: mip =     not found yet >=   3.999100000e+04        (1843; 363)
+3941680: mip =     not found yet >=   3.999100000e+04        (1848; 364)
+3953659: mip =     not found yet >=   3.999100000e+04        (1853; 365)
+3966344: mip =     not found yet >=   3.999100000e+04        (1856; 366)
+3979064: mip =     not found yet >=   3.999100000e+04        (1861; 368)
+3992936: mip =     not found yet >=   3.999100000e+04        (1863; 370)
+4006389: mip =     not found yet >=   3.999100000e+04        (1863; 373)
+4018928: mip =     not found yet >=   3.999100000e+04        (1866; 376)
Time used: 1758.5 secs.  Memory used: 21.1 Mb.
+4030754: mip =     not found yet >=   3.999100000e+04        (1871; 377)
+4043413: mip =     not found yet >=   3.999100000e+04        (1875; 378)
+4055123: mip =     not found yet >=   3.999100000e+04        (1878; 379)
+4067640: mip =     not found yet >=   3.999100000e+04        (1882; 380)
+4080121: mip =     not found yet >=   3.999100000e+04        (1883; 382)
+4093999: mip =     not found yet >=   3.999100000e+04        (1883; 386)
+4107231: mip =     not found yet >=   3.999100000e+04        (1888; 387)
